29 30
24
3 3 0 18
3 4 0 14
3 5 0 2
3 6 15 21
3 7 0 7
3 8 8 18
9 3 12 27
3 10 21 20
3 11 18 1
3 15 18 12
3 18 8 0
3 20 15 0
4 3 4 27
4 4 8 26
4 5 21 15
4 6 4 21
4 7 11 0
4 9 0 21
4 15 21 0
4 18 11 8
4 20 25 0
5 4 3 17
5 8 24 22
5 17 3 0
